data;


param d:= 100;
param r:=5;
param p:=0.780000;
param M:=1000;
param U:=
         1         1        1.895502e-01
         2         1       -4.993174e-02
         3         1       -1.395749e+00
         4         1       -1.149517e+00
         5         1        9.502802e-01
         6         1        1.720577e+00
         7         1       -7.422446e-01
         8         1        1.954600e-01
         9         1        1.194917e+00
        10         1       -1.598238e-01
        11         1        2.498147e-01
        12         1        6.541982e-02
        13         1        9.542678e-01
        14         1       -1.224233e+00
        15         1       -6.948328e-01
        16         1       -7.044933e-01
        17         1        1.296879e+00
        18         1       -9.108421e-01
        19         1        1.536070e+00
        20         1       -1.304489e+00
        21         1       -9.082319e-01
        22         1        1.395015e+00
        23         1       -7.344862e-01
        24         1       -2.786743e-01
        25         1        5.635171e-01
        26         1       -5.221069e-01
        27         1       -2.075271e-01
        28         1        1.655280e+00
        29         1       -4.490571e-01
        30         1        8.468149e-01
        31         1       -2.554233e-01
        32         1       -1.324313e-01
        33         1       -5.513896e-01
        34         1       -6.575493e-01
        35         1       -2.545880e-01
        36         1       -3.928856e-01
        37         1       -2.679250e-01
        38         1        4.563244e-01
        39         1       -1.522366e-01
        40         1       -2.238136e-02
        41         1       -1.512295e+00
        42         1       -1.293410e-01
        43         1        2.768276e-01
        44         1        1.431184e+00
        45         1        6.894483e-01
        46         1        1.710713e+00
        47         1       -7.272285e-01
        48         1        3.434150e-01
        49         1        1.389663e+00
        50         1       -6.793616e-03
        51         1       -3.599460e-01
        52         1        1.599303e+00
        53         1       -1.027513e+00
        54         1        7.342968e-01
        55         1        1.129416e+00
        56         1       -4.750369e-01
        57         1        2.946492e-01
        58         1        3.621935e-01
        59         1       -3.232424e-01
        60         1        7.233476e-01
        61         1        1.015083e+00
        62         1       -1.432491e+00
        63         1       -9.046248e-01
        64         1       -1.429689e+00
        65         1       -7.982896e-01
        66         1        2.114315e+00
        67         1        2.183315e-01
        68         1       -3.093511e+00
        69         1        2.020664e+00
        70         1       -2.069948e+00
        71         1        1.402269e+00
        72         1        1.502827e+00
        73         1        1.849852e+00
        74         1       -1.280316e+00
        75         1        8.265888e-01
        76         1       -4.203160e-02
        77         1       -1.743401e+00
        78         1        9.144876e-01
        79         1        8.318432e-01
        80         1       -3.196694e-01
        81         1        6.096948e-01
        82         1       -5.559871e-01
        83         1        6.802208e-01
        84         1       -1.264984e-01
        85         1       -1.110706e+00
        86         1        8.472861e-01
        87         1        7.267898e-01
        88         1       -8.167933e-01
        89         1       -5.270137e-02
        90         1       -2.550411e-01
        91         1       -3.730657e-01
        92         1        9.140703e-01
        93         1        4.588093e-01
        94         1        1.270387e+00
        95         1        1.654037e+00
        96         1       -1.343633e-01
        97         1       -3.768716e-01
        98         1       -3.539215e-01
        99         1        1.678573e+00
       100         1        1.270590e+00
         1         2       -4.955988e-01
         2         2       -4.022741e-01
         3         2       -3.042472e-01
         4         2        8.793395e-01
         5         2        1.421068e+00
         6         2        3.126550e-01
         7         2       -7.336547e-01
         8         2        1.429219e+00
         9         2       -1.249141e+00
        10         2        3.017880e-01
        11         2       -1.550098e+00
        12         2        2.973903e-01
        13         2        7.045395e-01
        14         2        6.344305e-01
        15         2       -1.541209e-02
        16         2        7.872512e-01
        17         2        5.790893e-02
        18         2        1.997067e+00
        19         2        1.014431e+00
        20         2       -1.196537e+00
        21         2       -9.822948e-01
        22         2        1.895115e+00
        23         2       -1.250254e+00
        24         2        1.829096e+00
        25         2        4.065722e-01
        26         2       -1.090062e-01
        27         2       -7.660521e-01
        28         2       -4.824544e-01
        29         2       -7.025798e-01
        30         2       -1.013108e+00
        31         2        7.833367e-01
        32         2        1.233679e+00
        33         2       -1.462098e+00
        34         2        1.651963e+00
        35         2       -4.088688e-01
        36         2        1.416320e+00
        37         2       -7.025320e-01
        38         2       -6.564828e-01
        39         2       -9.593884e-01
        40         2       -2.418604e-01
        41         2        3.674014e-01
        42         2       -7.396847e-01
        43         2        4.304204e-02
        44         2       -1.608933e+00
        45         2        3.987634e-01
        46         2       -1.605124e+00
        47         2        4.927732e-01
        48         2       -1.605931e+00
        49         2        1.241381e+00
        50         2        1.148098e+00
        51         2        4.621745e-01
        52         2        1.184517e-01
        53         2        7.587669e-01
        54         2       -1.094568e-01
        55         2        8.407420e-01
        56         2       -1.176883e+00
        57         2        9.201369e-01
        58         2       -8.593939e-01
        59         2        6.150690e-01
        60         2       -6.793144e-01
        61         2        1.402886e-01
        62         2       -5.162207e-01
        63         2       -1.734819e+00
        64         2       -4.305957e-01
        65         2        2.932793e+00
        66         2       -8.053641e-01
        67         2        2.361617e-01
        68         2        2.325978e-01
        69         2        1.359798e+00
        70         2       -3.356872e+00
        71         2        1.208508e+00
        72         2        3.916394e-01
        73         2       -7.640115e-01
        74         2        2.038781e-01
        75         2       -2.143483e+00
        76         2       -1.450124e+00
        77         2       -1.738290e+00
        78         2        2.979784e-02
        79         2        1.501652e+00
        80         2        4.241209e-01
        81         2       -3.617251e-01
        82         2        8.645116e-01
        83         2        1.663908e+00
        84         2        1.312714e+00
        85         2       -5.607410e-01
        86         2        1.441234e+00
        87         2        2.949843e-01
        88         2       -2.153978e-01
        89         2        3.983262e-01
        90         2        1.427939e+00
        91         2        5.069851e-01
        92         2       -1.499281e-01
        93         2        8.486249e-01
        94         2        1.159463e+00
        95         2        3.210555e-01
        96         2       -3.421466e-01
        97         2        3.283329e-01
        98         2        7.344769e-01
        99         2       -3.949391e-01
       100         2       -1.082164e+00
         1         3        4.096697e-01
         2         3       -6.858207e-01
         3         3        6.155779e-02
         4         3       -2.187410e+00
         5         3       -1.069378e-02
         6         3        3.753360e-01
         7         3       -3.510137e-01
         8         3        9.605101e-01
         9         3       -2.474070e+00
        10         3       -2.253977e-01
        11         3        2.128588e-02
        12         3       -2.414140e+00
        13         3       -8.289938e-01
        14         3       -1.015767e+00
        15         3       -4.535766e-01
        16         3        4.481458e-01
        17         3       -3.348237e-02
        18         3       -3.467156e-02
        19         3        9.047263e-02
        20         3       -1.343196e+00
        21         3       -5.925549e-01
        22         3       -1.376450e-01
        23         3        1.262203e+00
        24         3       -1.336547e-01
        25         3       -1.476022e-01
        26         3        4.921250e-01
        27         3       -1.353027e+00
        28         3       -2.111942e+00
        29         3       -1.452903e+00
        30         3        2.953662e-01
        31         3        9.510156e-01
        32         3       -3.852827e-01
        33         3        1.428556e+00
        34         3       -6.789530e-01
        35         3       -9.291697e-01
        36         3       -5.394887e-01
        37         3        7.962012e-01
        38         3        8.740065e-02
        39         3       -1.234512e+00
        40         3        4.978727e-01
        41         3        6.862619e-01
        42         3       -7.163229e-01
        43         3        8.981080e-01
        44         3        5.930239e-01
        45         3        3.940597e-01
        46         3       -1.254251e-01
        47         3       -3.980320e-01
        48         3        1.173322e+00
        49         3       -1.077871e+00
        50         3       -5.503016e-01
        51         3        1.704665e+00
        52         3       -1.123704e+00
        53         3       -1.218439e+00
        54         3        4.230875e-01
        55         3       -6.232621e-01
        56         3       -2.784326e-01
        57         3       -6.947274e-01
        58         3        5.797833e-01
        59         3       -2.737248e-02
        60         3        6.308740e-01
        61         3        1.968051e-01
        62         3       -1.504823e+00
        63         3        7.661155e-01
        64         3       -2.703844e-01
        65         3       -4.773321e-01
        66         3       -7.803573e-01
        67         3       -9.614652e-01
        68         3       -1.305152e+00
        69         3        1.444712e+00
        70         3       -7.667024e-01
        71         3        2.118206e-01
        72         3       -1.580417e+00
        73         3       -4.206409e-01
        74         3       -3.273184e-01
        75         3        1.462112e+00
        76         3        3.482455e-01
        77         3       -3.294159e-01
        78         3        1.292048e+00
        79         3        2.661964e-02
        80         3        1.423499e+00
        81         3        3.000692e-01
        82         3        2.644080e-01
        83         3        1.322588e-01
        84         3       -4.896736e-01
        85         3        8.398641e-01
        86         3       -6.557487e-01
        87         3        1.117930e+00
        88         3       -4.098713e-01
        89         3        2.741575e-01
        90         3       -2.377739e+00
        91         3        6.344610e-01
        92         3        6.694286e-01
        93         3       -1.611322e-01
        94         3        2.925535e-01
        95         3       -1.274542e+00
        96         3        1.053519e+00
        97         3        2.028853e-01
        98         3        2.064805e+00
        99         3        1.546782e+00
       100         3        6.700790e-01
         1         4       -1.935875e+00
         2         4        2.457043e-01
         3         4        7.070855e-02
         4         4        8.210666e-01
         5         4        2.388259e-01
         6         4        1.514807e+00
         7         4       -1.310748e-01
         8         4        9.241132e-01
         9         4       -1.152500e+00
        10         4        6.537601e-01
        11         4       -9.590135e-01
        12         4        9.045793e-01
        13         4        4.753676e-01
        14         4        6.533024e-01
        15         4       -2.601156e+00
        16         4       -4.883968e-02
        17         4       -1.047084e+00
        18         4        7.236056e-01
        19         4        3.185404e-01
        20         4        9.624720e-01
        21         4        1.521663e+00
        22         4        7.956342e-01
        23         4       -1.322592e+00
        24         4        4.801134e-02
        25         4       -1.018422e+00
        26         4       -1.296961e+00
        27         4        1.694487e-01
        28         4       -7.891730e-01
        29         4        1.345277e+00
        30         4        2.088087e+00
        31         4        2.553331e-01
        32         4        1.472519e+00
        33         4       -6.758473e-01
        34         4       -2.604577e-01
        35         4        6.821904e-01
        36         4        9.731032e-01
        37         4        9.165725e-01
        38         4        3.799471e-01
        39         4       -3.348535e-01
        40         4       -1.796450e-01
        41         4        6.443235e-01
        42         4        1.376620e+00
        43         4       -2.970254e-02
        44         4       -1.268771e+00
        45         4       -4.235605e-01
        46         4        8.504711e-01
        47         4        8.202163e-01
        48         4        6.101374e-01
        49         4        6.214960e-01
        50         4        1.980812e+00
        51         4        5.012240e-02
        52         4        4.196163e-01
        53         4        2.699763e+00
        54         4       -3.490196e-01
        55         4       -1.441723e+00
        56         4        5.128858e-01
        57         4        1.190952e+00
        58         4       -1.292298e+00
        59         4       -1.099572e+00
        60         4       -1.470089e+00
        61         4       -3.352164e-01
        62         4       -3.087218e-01
        63         4        7.907105e-01
        64         4        3.386387e-01
        65         4        6.991090e-01
        66         4       -1.822432e+00
        67         4       -1.209635e+00
        68         4        1.912401e-01
        69         4       -3.185117e-01
        70         4       -5.415657e-02
        71         4        1.436064e+00
        72         4        7.722627e-01
        73         4        1.983737e+00
        74         4        8.149038e-01
        75         4        1.348656e-01
        76         4       -1.136378e+00
        77         4        2.193179e+00
        78         4       -4.072340e-01
        79         4        1.284025e-01
        80         4       -1.221832e+00
        81         4       -6.059276e-01
        82         4        4.083933e-01
        83         4        4.981251e-01
        84         4        1.909462e+00
        85         4        1.279826e-01
        86         4        4.635907e-01
        87         4       -5.115764e-01
        88         4       -2.748057e-01
        89         4       -1.880135e-01
        90         4       -1.387762e+00
        91         4        8.031599e-01
        92         4       -1.250306e+00
        93         4        1.022745e-01
        94         4       -1.038513e+00
        95         4       -1.009364e+00
        96         4        1.239961e+00
        97         4       -1.837619e+00
        98         4       -3.172219e-01
        99         4        2.877758e-02
       100         4        1.610501e+00
         1         5       -1.069204e+00
         2         5        5.590833e-02
         3         5        1.253653e-02
         4         5       -1.091418e+00
         5         5       -5.659034e-01
         6         5       -7.140007e-02
         7         5       -4.479860e-01
         8         5        1.078081e+00
         9         5        7.361975e-01
        10         5       -1.150209e+00
        11         5        5.580088e-01
        12         5       -1.249992e+00
        13         5        1.419642e+00
        14         5       -1.829992e+00
        15         5        1.514057e+00
        16         5        2.685705e-02
        17         5        2.565038e-02
        18         5        5.768639e-01
        19         5        1.813930e-01
        20         5       -7.736264e-01
        21         5        2.901881e-01
        22         5        1.709656e-01
        23         5       -1.106003e+00
        24         5        7.812861e-01
        25         5        1.671687e+00
        26         5       -6.703899e-01
        27         5        1.005236e+00
        28         5       -6.209912e-01
        29         5        7.985472e-01
        30         5        6.219003e-01
        31         5        3.700130e-01
        32         5        5.892040e-01
        33         5        1.385723e+00
        34         5        6.116917e-01
        35         5       -6.494083e-01
        36         5       -2.682254e-02
        37         5        1.112607e+00
        38         5       -1.976925e+00
        39         5       -5.862888e-02
        40         5       -7.383271e-01
        41         5        8.922978e-01
        42         5        2.258352e-01
        43         5       -3.329030e-01
        44         5       -1.248267e+00
        45         5        1.630248e+00
        46         5       -8.999560e-02
        47         5       -2.929274e-01
        48         5       -1.944473e+00
        49         5       -2.250429e-02
        50         5        2.489765e-01
        51         5        6.761316e-01
        52         5       -8.457059e-02
        53         5        8.144478e-01
        54         5       -5.233260e-01
        55         5        9.313558e-01
        56         5        4.515200e-01
        57         5       -7.855936e-01
        58         5        6.273124e-01
        59         5       -3.138063e-01
        60         5        1.213028e+00
        61         5       -1.711834e-01
        62         5       -1.577128e+00
        63         5       -6.813634e-01
        64         5        6.139928e-02
        65         5        1.570653e+00
        66         5        4.361631e-01
        67         5       -1.007896e+00
        68         5        1.118281e-01
        69         5       -8.537955e-02
        70         5        5.359858e-01
        71         5       -1.044690e+00
        72         5        3.590207e-01
        73         5       -1.521560e+00
        74         5        1.771472e-01
        75         5        2.428027e-01
        76         5       -1.734387e-01
        77         5        2.725803e-01
        78         5        1.374078e+00
        79         5        9.750787e-01
        80         5       -2.165134e-01
        81         5       -2.726658e+00
        82         5       -1.413851e+00
        83         5        1.591387e+00
        84         5       -2.018444e-01
        85         5        8.363204e-01
        86         5       -7.578301e-01
        87         5        8.773403e-01
        88         5        1.545451e+00
        89         5       -2.976845e+00
        90         5        4.255625e-01
        91         5        1.235418e+00
        92         5       -7.792592e-01
        93         5        5.824923e-01
        94         5        2.775178e+00
        95         5        9.581186e-01
        96         5        3.717483e-01
        97         5        4.670262e-02
        98         5       -4.905134e-01
        99         5        3.335004e-01
       100         5       -3.315487e-01
;

param theta:=
    1       -1.190838e-01
    2        2.775200e+00
    3        8.263188e-02
    4        6.867454e-01
    5        1.187488e+00
;
param X_true:=
    1       -3.963650e+00
    2       -9.324601e-01
    3       -6.088304e-01
    4        1.663817e+00
    5        3.322165e+00
    6        1.648966e+00
    7       -2.597991e+00
    8        5.936398e+00
    9       -3.729911e+00
   10       -7.911112e-02
   11       -4.324133e+00
   12       -2.458806e-01
   13        3.784496e+00
   14        9.669268e-02
   15        1.451614e-02
   16        2.304476e+00
   17       -6.859014e-01
   18        6.828812e+00
   19        3.075175e+00
   20       -3.533371e+00
   21       -1.276370e+00
   22        5.832087e+00
   23       -5.499015e+00
   24        6.057401e+00
   25        2.333899e+00
   26       -1.886346e+00
   27       -9.037555e-01
   28       -2.990941e+00
   29       -1.426732e-01
   30       -7.169009e-01
   31        2.898160e+00
   32        5.117485e+00
   33       -2.692359e+00
   34        5.155534e+00
   35       -1.484210e+00
   36        4.568339e+00
   37        9.992084e-02
   38       -3.953929e+00
   39       -3.046166e+00
   40       -1.627593e+00
   41        2.757165e+00
   42       -8.827455e-01
   43       -2.547700e-01
   44       -6.939481e+00
   45        2.702610e+00
   46       -4.190990e+00
   47        1.636542e+00
   48       -6.289884e+00
   49        3.591307e+00
   50        4.798130e+00
   51        2.304275e+00
   52        2.319097e-01
   53        4.949805e+00
   54       -1.217006e+00
   55        2.262788e+00
   56       -2.344577e+00
   57        2.345841e+00
   58       -2.522874e+00
   59        6.154723e-01
   60       -1.487339e+00
   61       -1.493788e-01
   62       -3.471699e+00
   63       -4.909256e+00
   64       -7.418684e-01
   65        1.053953e+01
   66       -3.284454e+00
   67       -1.476801e+00
   68        1.169882e+00
   69        3.333861e+00
   70       -8.534140e+00
   71        2.950827e+00
   72        1.731950e+00
   73       -2.819154e+00
   74        1.462239e+00
   75       -5.545380e+00
   76       -4.977620e+00
   77       -2.814360e+00
   78        1.431453e+00
   79        5.318433e+00
   80        2.351539e-01
   81       -4.706420e+00
   82        1.088824e+00
   83        6.778905e+00
   84        4.690324e+00
   85       -2.727699e-01
   86        3.263641e+00
   87        1.515494e+00
   88        1.110863e+00
   89       -2.529309e+00
   90        3.349034e+00
   91        3.522627e+00
   92       -2.254544e+00
   93        3.048496e+00
   94        5.672757e+00
   95        1.033889e+00
   96        4.466418e-01
   97       -2.348526e-01
   98        1.452707e+00
   99       -7.521268e-01
  100       -2.387153e+00
;
param X:=
    1        3.184915e-01
    2       -6.211875e-01
    3        3.211030e-01
    4       -4.447936e-01
    5        3.322165e+00
    6        1.648966e+00
    7       -2.597991e+00
    8       -2.322277e+00
    9       -3.729911e+00
   10        4.056210e-02
   11       -5.895112e-02
   12       -2.458806e-01
   13       -4.387127e-01
   14        1.205668e+00
   15       -2.913837e+00
   16       -2.305268e-01
   17        6.302757e-01
   18        2.117537e-02
   19        3.075175e+00
   20       -8.407753e-02
   21        6.051010e-02
   22        1.452170e+00
   23       -2.980295e-01
   24        6.057401e+00
   25       -1.687280e+00
   26       -1.203592e+00
   27        1.400762e+00
   28        8.287612e-01
   29       -1.027140e+00
   30       -8.884937e-01
   31        4.808100e-01
   32       -4.940835e-02
   33       -2.692359e+00
   34        1.676496e+00
   35       -1.484210e+00
   36        2.372387e+00
   37        2.835703e-01
   38       -3.953929e+00
   39       -7.750118e-02
   40       -2.516642e-01
   41       -4.885328e-01
   42       -8.827455e-01
   43        3.674974e-01
   44        4.046103e-01
   45       -1.071765e+00
   46       -4.190990e+00
   47        1.299079e+00
   48        3.160824e-01
   49       -1.953302e+00
   50       -6.339339e-01
   51       -1.088372e-01
   52        1.456064e-01
   53        4.949805e+00
   54       -9.961285e-01
   55       -1.449014e+00
   56       -6.522117e-01
   57       -1.383107e+00
   58       -6.192758e-01
   59        4.217921e-03
   60       -6.949637e-01
   61        9.546476e-01
   62        4.378065e-01
   63        3.171493e-01
   64        4.941819e-01
   65       -1.830361e-01
   66       -5.990308e-01
   67       -1.476801e+00
   68        4.246056e-01
   69        3.333861e+00
   70       -2.012857e-01
   71       -2.610814e-01
   72        6.911953e-01
   73       -2.819154e+00
   74       -4.200455e-01
   75       -1.660106e+00
   76       -7.062456e-02
   77       -2.009235e+00
   78        1.431453e+00
   79        5.499102e-01
   80       -9.027815e-01
   81       -4.706420e+00
   82        1.088824e+00
   83        1.426311e+00
   84       -6.376778e-01
   85        1.428256e+00
   86       -5.110638e-01
   87       -4.071454e-02
   88       -1.947341e-01
   89       -2.529309e+00
   90       -1.567610e-01
   91       -7.067841e-01
   92       -4.691853e-02
   93       -1.697561e+00
   94       -7.029003e-01
   95        3.730768e-01
   96        4.466418e-01
   97       -2.348526e-01
   98       -2.184402e-01
   99        1.025893e+00
  100       -5.560251e-01
;
param outliervec:=
    1    1
    2    1
    3    1
    4    1
    5    0
    6    0
    7    0
    8    1
    9    0
   10    1
   11    1
   12    0
   13    1
   14    1
   15    1
   16    1
   17    1
   18    1
   19    0
   20    1
   21    1
   22    1
   23    1
   24    0
   25    1
   26    1
   27    1
   28    1
   29    1
   30    1
   31    1
   32    1
   33    0
   34    1
   35    0
   36    1
   37    1
   38    0
   39    1
   40    1
   41    1
   42    0
   43    1
   44    1
   45    1
   46    0
   47    1
   48    1
   49    1
   50    1
   51    1
   52    1
   53    0
   54    1
   55    1
   56    1
   57    1
   58    1
   59    1
   60    1
   61    1
   62    1
   63    1
   64    1
   65    1
   66    1
   67    0
   68    1
   69    0
   70    1
   71    1
   72    1
   73    0
   74    1
   75    1
   76    1
   77    1
   78    0
   79    1
   80    1
   81    0
   82    0
   83    1
   84    1
   85    1
   86    1
   87    1
   88    1
   89    0
   90    1
   91    1
   92    1
   93    1
   94    1
   95    1
   96    0
   97    0
   98    1
   99    1
  100    1
;